3,2
4,5,6
5,8,9
3,3
54,83,15 
79,3,11 
16,89,49 
3,4
26,38,27
59,62,44
78,90,64
69,30,61
3,5
26,38,27
59,62,44
78,90,64
88,54,47
69,30,61
4,2
55,54,63,14
13,11,5,11
4,3
3,4,5,6
10,45,2,1
6,8,9,4
4,4
54,71,78,9
86,25,39,76
10,79,93,2 
71,32,48,42
4,5
53,19,99,62
93,79,88,77
90,92,35,13
65,97,27,25
64,38,44,46
5,2
71 27 55 90 11
13 11 73 43 27
5,3
15,64,64,48,9
28,4,43,93,1
77,36,57,15,81
5,4
34,20,57,47
5,48,80,43
86,35,5,93 
28,39,55,21